(declare-fun x () String)

(assert (str.in.re x (re.++  (str.to.re "\x4e01") (re.++ (re.opt  (str.to.re "\x4e02") ) (re.++ (re.opt  (str.to.re "\x4e03") ) (re.++ (re.opt  (str.to.re "\x4e04") ) (re.++ (re.opt  (str.to.re "\x4e05") ) (re.++ (re.opt  (str.to.re "\x4e06") ) (re.++ (re.opt  (str.to.re "\x4e07") ) (re.++ (re.opt  (str.to.re "\x4e08") ) (re.++ (re.opt  (str.to.re "\x4e09") ) (re.++ (re.opt  (str.to.re "\x4e0a") ) (re.++ (re.opt  (str.to.re "\x4e0b") ) (re.++ (re.opt  (str.to.re "\x4e0c") ) (re.++ (re.opt  (str.to.re "\x4e0d") ) (re.++ (re.opt  (str.to.re "\x4e0e") ) (re.++ (re.opt  (str.to.re "\x4e0f") ) (re.++ (re.opt  (str.to.re "\x4e10") ) (re.++ (re.opt  (str.to.re "\x4e11") ) (re.++ (re.opt  (str.to.re "\x4e12") ) (re.++ (re.opt  (str.to.re "\x4e13") ) (re.++ (re.opt  (str.to.re "\x4e14") ) (re.++ (re.opt  (str.to.re "\x4e15") ) (re.++ (re.opt  (str.to.re "\x4e16") ) (re.++ (re.opt  (str.to.re "\x4e17") ) (re.++ (re.opt  (str.to.re "\x4e18") ) (re.++ (re.opt  (str.to.re "\x4e19") ) (re.++ (re.opt  (str.to.re "\x4e1a") ) (re.++ (re.opt  (str.to.re "\x4e1b") ) (re.++ (re.opt  (str.to.re "\x4e1c") ) (re.++ (re.opt  (str.to.re "\x4e1d") ) (re.++ (re.opt  (str.to.re "\x4e1e") ) (re.++ (re.opt  (str.to.re "\x4e1f") ) (re.++ (re.opt  (str.to.re "\x4e20") ) (re.++ (re.opt  (str.to.re "\x4e21") ) (re.++ (re.opt  (str.to.re "\x4e22") ) (re.++ (re.opt  (str.to.re "\x4e23") ) (re.++ (re.opt  (str.to.re "\x4e24") ) (re.++ (re.opt  (str.to.re "\x4e25") ) (re.++ (re.opt  (str.to.re "\x4e26") ) (re.++ (re.opt  (str.to.re "\x4e27") ) (re.++ (re.opt  (str.to.re "\x4e28") ) (re.++ (re.opt  (str.to.re "\x4e29") ) (re.++ (re.opt  (str.to.re "\x4e2a") ) (re.++ (re.opt  (str.to.re "\x4e2b") ) (re.++ (re.opt  (str.to.re "\x4e2c") ) (re.++ (re.opt  (str.to.re "\x4e2d") ) (re.++ (re.opt  (str.to.re "\x4e2e") ) (re.++ (re.opt  (str.to.re "\x4e2f") ) (re.++ (re.opt  (str.to.re "\x4e30") ) (re.++ (re.opt  (str.to.re "\x4e31") ) (re.++ (re.opt  (str.to.re "\x4e32") ) (re.++ (re.opt  (str.to.re "\x4e33") ) (re.++ (re.opt  (str.to.re "\x4e34") ) (re.++ (re.opt  (str.to.re "\x4e35") ) (re.++ (re.opt  (str.to.re "\x4e36") ) (re.++ (re.opt  (str.to.re "\x4e37") ) (re.++ (re.opt  (str.to.re "\x4e38") ) (re.++ (re.opt  (str.to.re "\x4e39") ) (re.++ (re.opt  (str.to.re "\x4e3a") ) (re.++ (re.opt  (str.to.re "\x4e3b") ) (re.++ (re.opt  (str.to.re "\x4e3c") ) (re.++ (re.opt  (str.to.re "\x4e3d") ) (re.++ (re.opt  (str.to.re "\x4e3e") ) (re.++ (re.opt  (str.to.re "\x4e3f") ) (re.++ (re.opt  (str.to.re "\x4e40") ) (re.++ (re.opt  (str.to.re "\x4e41") ) (re.++ (re.opt  (str.to.re "\x4e42") ) (re.++ (re.opt  (str.to.re "\x4e43") ) (re.++ (re.opt  (str.to.re "\x4e44") ) (re.++ (re.opt  (str.to.re "\x4e45") ) (re.++ (re.opt  (str.to.re "\x4e46") ) (re.++ (re.opt  (str.to.re "\x4e47") ) (re.++ (re.opt  (str.to.re "\x4e48") ) (re.++ (re.opt  (str.to.re "\x4e49") ) (re.++ (re.opt  (str.to.re "\x4e4a") ) (re.++ (re.opt  (str.to.re "\x4e4b") ) (re.++ (re.opt  (str.to.re "\x4e4c") ) (re.++ (re.opt  (str.to.re "\x4e4d") ) (re.++ (re.opt  (str.to.re "\x4e4e") ) (re.++ (re.opt  (str.to.re "\x4e4f") ) (re.++ (re.opt  (str.to.re "\x4e50") ) (re.++ (re.opt  (str.to.re "\x4e51") ) (re.++ (re.opt  (str.to.re "\x4e52") ) (re.++ (re.opt  (str.to.re "\x4e53") ) (re.++ (re.opt  (str.to.re "\x4e54") ) (re.++ (re.*  (str.to.re "\x4e55") ) (re.++ (re.opt  (str.to.re "\x4e56") ) (re.++ (re.opt  (str.to.re "\x4e57") ) (re.++ (re.*  (str.to.re "\x4e58") ) (re.++ (re.*  (str.to.re "\x4e59") ) (re.++ (re.*  (str.to.re "\x4e5a") ) (re.++ (re.opt  (str.to.re "\x4e5b") ) (re.++ (re.opt  (str.to.re "\x4e5c") ) (re.++ (re.opt  (str.to.re "\x4e5d") ) (re.++ (re.opt  (str.to.re "\x4e5e") ) (re.++ (re.opt  (str.to.re "\x4e5f") ) (re.*  (str.to.re "\x4e60") ))))))))))))))))))))))))))))))))))))))))))))))))))))))))))))))))))))))))))))))))))))))))))))))))))
(assert (str.in.re x (re.*  (re.union  (str.to.re "\x4e01") (re.union  (str.to.re "\x4e02") (re.union  (str.to.re "\x4e03") (re.union  (str.to.re "\x4e04") (re.union  (str.to.re "\x4e05") (re.union  (str.to.re "\x4e06") (re.union  (str.to.re "\x4e07") (re.union  (str.to.re "\x4e08") (re.union  (str.to.re "\x4e09") (re.union  (str.to.re "\x4e0a") (re.union  (str.to.re "\x4e0b") (re.union  (str.to.re "\x4e0c") (re.union  (str.to.re "\x4e0d") (re.union  (str.to.re "\x4e0e") (re.union  (str.to.re "\x4e0f") (re.union  (str.to.re "\x4e10") (re.union  (str.to.re "\x4e11") (re.union  (str.to.re "\x4e12") (re.union  (str.to.re "\x4e13") (re.union  (str.to.re "\x4e14") (re.union  (str.to.re "\x4e15") (re.union  (str.to.re "\x4e16") (re.union  (str.to.re "\x4e17") (re.union  (str.to.re "\x4e18") (re.union  (str.to.re "\x4e19") (re.union  (str.to.re "\x4e1a") (re.union  (str.to.re "\x4e1b") (re.union  (str.to.re "\x4e1c") (re.union  (str.to.re "\x4e1d") (re.union  (str.to.re "\x4e1e") (re.union  (str.to.re "\x4e1f") (re.union  (str.to.re "\x4e20") (re.union  (str.to.re "\x4e21") (re.union  (str.to.re "\x4e22") (re.union  (str.to.re "\x4e23") (re.union  (str.to.re "\x4e24") (re.union  (str.to.re "\x4e25") (re.union  (str.to.re "\x4e26") (re.union  (str.to.re "\x4e27") (re.union  (str.to.re "\x4e28") (re.union  (str.to.re "\x4e29") (re.union  (str.to.re "\x4e2a") (re.union  (str.to.re "\x4e2b") (re.union  (str.to.re "\x4e2c") (re.union  (str.to.re "\x4e2d") (re.union  (str.to.re "\x4e2e") (re.union  (str.to.re "\x4e2f") (re.union  (str.to.re "\x4e30") (re.union  (str.to.re "\x4e31") (re.union  (str.to.re "\x4e32") (re.union  (str.to.re "\x4e33") (re.union  (str.to.re "\x4e34") (re.union  (str.to.re "\x4e35") (re.union  (str.to.re "\x4e36") (re.union  (str.to.re "\x4e37") (re.union  (str.to.re "\x4e38") (re.union  (str.to.re "\x4e39") (re.union  (str.to.re "\x4e3a") (re.union  (str.to.re "\x4e3b") (re.union  (str.to.re "\x4e3c") (re.union  (str.to.re "\x4e3d") (re.union  (str.to.re "\x4e3e") (re.union  (str.to.re "\x4e3f") (re.union  (str.to.re "\x4e40") (re.union  (str.to.re "\x4e41") (re.union  (str.to.re "\x4e42") (re.union  (str.to.re "\x4e43") (re.union  (str.to.re "\x4e44") (re.union  (str.to.re "\x4e45") (re.union  (str.to.re "\x4e46") (re.union  (str.to.re "\x4e47") (re.union  (str.to.re "\x4e48") (re.union  (str.to.re "\x4e49") (re.union  (str.to.re "\x4e4a") (re.union  (str.to.re "\x4e4b") (re.union  (str.to.re "\x4e4c") (re.union  (str.to.re "\x4e4d") (re.union  (str.to.re "\x4e4e") (re.union  (str.to.re "\x4e4f") (re.union  (str.to.re "\x4e50") (re.union  (str.to.re "\x4e51") (re.union  (str.to.re "\x4e52") (re.union  (str.to.re "\x4e53") (re.union  (str.to.re "\x4e54") (re.union  (str.to.re "\x4e55") (re.union  (str.to.re "\x4e56") (re.union  (str.to.re "\x4e57") (re.union  (str.to.re "\x4e58") (re.union  (str.to.re "\x4e59") (re.union  (str.to.re "\x4e5a") (re.union  (str.to.re "\x4e5b") (re.union  (str.to.re "\x4e5c") (re.union  (str.to.re "\x4e5d") (re.union  (str.to.re "\x4e5e") (re.union  (str.to.re "\x4e5f") (re.union  (str.to.re "\x4e60") (re.union  (str.to.re "\x4e61") (re.union  (str.to.re "\x4e62") (re.union  (str.to.re "\x4e63") (re.union  (str.to.re "\x4e64") (re.union  (str.to.re "\x4e65")  (str.to.re "\x4e66")))))))))))))))))))))))))))))))))))))))))))))))))))))))))))))))))))))))))))))))))))))))))))))))))))))) )))
(check-sat)
(get-model)